[ma. 03. april 14:16:39 +0200 2023]  ./input/alternate_g_np/50-1-3.gcc
Set parameter Username
Academic license - for non-commercial use only - expires 2024-03-28
Set parameter TimeLimit to value 1800
Set parameter PreCrush to value 1
Set parameter LazyConstraints to value 1
Gurobi Optimizer version 10.0.1 build v10.0.1rc0 (linux64)

CPU model: AMD Ryzen 9 5950X 16-Core Processor, instruction set [SSE2|AVX|AVX2]
Thread count: 16 physical cores, 32 logical processors, using up to 32 threads

Optimize a model with 52 rows, 150 columns and 350 nonzeros
Model fingerprint: 0x4e91784c
Variable types: 0 continuous, 150 integer (150 binary)
Coefficient statistics:
  Matrix range     [1e+00, 1e+00]
  Objective range  [1e+00, 1e+02]
  Bounds range     [1e+00, 1e+00]
  RHS range        [1e+00, 1e+00]
Presolve time: 0.00s
Presolved: 52 rows, 150 columns, 350 nonzeros
Variable types: 0 continuous, 150 integer (150 binary)

Root relaxation: objective 2.382000e+03, 2 iterations, 0.00 seconds (0.00 work units)

    Nodes    |    Current Node    |     Objective Bounds      |     Work
 Expl Unexpl |  Obj  Depth IntInf | Incumbent    BestBd   Gap | It/Node Time

     0     0 2382.00000    0    2          - 2382.00000      -     -    0s
     0     0 2094.00000    0    -          - 2094.00000      -     -    0s
     0     0 1979.00000    0    -          - 1979.00000      -     -    0s
     0     0 1979.00000    0    -          - 1979.00000      -     -    0s
     0     0 1979.00000    0    -          - 1979.00000      -     -    0s
     0     0 1935.00000    0   17          - 1935.00000      -     -    0s
     0     0  775.75000    0    6          -  775.75000      -     -    0s
     0     0  632.00000    0   12          -  632.00000      -     -    0s
     0     0  572.07692    0   19          -  572.07692      -     -    0s
H    0     0                      97.0000000  572.07692   490%     -    0s
     0     2  544.50000    0   14   97.00000  544.50000   461%     -    0s
*    7    12               3     456.0000000  481.47059  5.59%  20.1    0s

Cutting planes:
  User: 60
  Gomory: 1
  Lazy constraints: 39

Explored 20 nodes (440 simplex iterations) in 0.02 seconds (0.01 work units)
Thread count was 32 (of 32 available processors)

Solution count 2: 456 97 

Optimal solution found (tolerance 1.00e-04)
Best objective 4.560000000000e+02, best bound 4.560000000000e+02, gap 0.0000%

User-callback calls 198, time in user-callback 0.00 sec
Minimal separator inequalities added: 78
Indegree inequalities added: 39
Passed solution check
[ma. 03. april 14:16:39 +0200 2023]  done

